\* The pracownicy problem *\
Minimize
calkowita_ilosc: 25 ilosc_w_tyg + 24 ilosc_w_tyg + 23 ilosc_w_tyg
 + 28 ilosc_w_tyg + 26 ilosc_w_tyg + 24 ilosc_w_tyg + 23 ilosc_w_tyg
 + 25 ilosc_w_tyg + 24 ilosc_w_tyg + 23 ilosc_w_tyg + 28 ilosc_w_tyg
 + 26 ilosc_w_tyg + 28 ilosc_w_tyg + 30 ilosc_w_tyg + 25 ilosc_w_tyg
 + 24 ilosc_w_tyg + 23 ilosc_w_tyg + 30 ilosc_w_tyg
Subject To
_C1: ilosc_w_tyg + ilosc_w_tyg + ilosc_w_tyg + ilosc_w_tyg >= 14
_C10: ilosc_w_tyg + ilosc_w_tyg + ilosc_w_tyg >= 7
_C11: ilosc_w_tyg + ilosc_w_tyg >= 7
_C2: ilosc_w_tyg + ilosc_w_tyg + ilosc_w_tyg >= 14
_C3: ilosc_w_tyg + ilosc_w_tyg + ilosc_w_tyg + ilosc_w_tyg >= 14
_C4: ilosc_w_tyg + ilosc_w_tyg + ilosc_w_tyg >= 14
_C5: ilosc_w_tyg + ilosc_w_tyg + ilosc_w_tyg + ilosc_w_tyg >= 14
_C6: ilosc_w_tyg + ilosc_w_tyg + ilosc_w_tyg >= 8
_C7: ilosc_w_tyg + ilosc_w_tyg >= 8
_C8: ilosc_w_tyg + ilosc_w_tyg + ilosc_w_tyg + ilosc_w_tyg >= 8
_C9: ilosc_w_tyg + ilosc_w_tyg + ilosc_w_tyg + ilosc_w_tyg >= 8
